0 0 0 0
0 1 0 5
0 2 0 0
0 3 0 0
0 4 0 1
0 5 1 1
0 6 0 2
0 7 1 7
0 8 1 2
0 9 0 1
0 10 0 7
0 11 1 9
0 12 0 5
0 13 0 2
0 14 0 7
0 15 2 10
0 16 2 13
0 17 0 11
0 18 0 17
0 19 1 11
0 20 0 10
0 21 0 13
0 22 1 10
0 23 0 18
0 24 1 18
0 25 1 15
0 26 0 17
0 27 0 21
0 28 0 25
0 29 1 24
0 30 0 23
0 31 0 30
